10
-1 37 100 94 13 45 56 49 89 25
37 -1 6 89 40 64 76 36 51 20
100 6 -1 40 1 39 41 34 32 9
94 89 40 -1 68 55 25 4 18 26
13 40 1 68 -1 60 29 23 47 76
45 64 39 55 60 -1 68 49 73 83
56 76 41 25 29 68 -1 3 47 46
49 36 34 4 23 49 3 -1 73 47
89 51 32 18 47 73 47 73 -1 35
25 20 9 26 76 83 46 47 35 -1
